NAME : rbg086a.tw.16899.tour
COMMENT : Length = 16899
COMMENT : Found by LKH [Keld Helsgaun] Sun Sep 10 01:17:36 2017
TYPE : TOUR
DIMENSION : 87
TOUR_SECTION
1
2
3
4
5
6
7
8
10
15
11
13
12
9
14
16
22
20
19
17
18
23
21
24
26
25
27
28
30
29
31
32
33
34
35
36
38
37
44
43
39
41
42
40
48
47
51
45
46
50
49
55
54
52
57
53
61
59
58
56
64
60
62
66
63
72
65
67
71
70
68
75
73
74
69
78
77
79
76
81
82
80
83
84
85
86
87
-1
EOF
